%
% Generated Sudoku 16x16
% Density approximation: 0.20
%
x = array2d(1..n, 1..n, [
   _,  12,   _,   _,   _,   1,  15,   _,   _,   _,  10,   _,   _,   _,   _,   _,
   _,   _,   1,   _,   _,  13,   _,   _,   _,   _,   _,   _,   _,  16,   _,   2,
   8,   _,   _,   _,   _,   _,   _,   _,   3,   9,  14,  13,   1,   _,   _,   _,
   _,   _,   _,   _,   _,   9,   _,   _,   _,   _,   _,   _,   _,   _,  13,   _,
   _,   _,   9,  13,   _,   8,   _,   _,   _,   _,   _,   _,   _,   _,   4,   _,
  12,   _,   _,   _,   _,   _,   _,   _,   _,   _,   _,   1,   _,   _,   _,   9,
   _,   _,   6,   _,   _,   _,   _,   _,   _,   _,   _,   _,   _,   _,   _,   _,
   _,   _,   _,   _,   _,   _,   1,   _,   _,   _,   _,   _,   _,  15,   _,  14,
   _,   _,   _,   _,   _,   _,  14,   _,   _,   8,   _,   _,   _,   _,   _,   3,
   _,   _,   _,   _,   _,  15,  12,   _,  16,   _,   _,   _,   _,   _,   _,   _,
   _,   _,   _,   _,   _,   _,   _,   _,   _,   _,   _,   _,   _,   _,   _,   7,
   3,   _,   _,  12,   _,   _,   _,   _,   _,   _,   _,   _,   _,   _,   _,   _,
   _,   6,   _,   1,   _,   _,   _,   _,   _,   _,  15,  16,   _,   _,   _,   4,
   _,   _,   _,   _,   _,   _,   8,   _,   _,   _,   _,   _,  11,   _,  15,   6,
   _,   _,  12,  15,   _,   _,   _,   _,   _,   _,   _,   _,   _,   _,   _,   _,
   _,   _,   _,   _,  15,   _,   _,   3,   4,   _,   _,   6,   _,  14,   _,   _
]);

n = 16;
